NAME : local_1
TYPE : ATSP
DIMENSION : 30
EDGE_WEIGHT_TYPE : EXPLICIT
EDGE_WEIGHT_FORMAT : FULL_MATRIX
EDGE_WEIGHT_SECTION
0 1098 10000000 743 10000000 521 653 10000000 10000000 10000000 10000000 10000000 10000000 355 10000000 10000000 500 737 446 10000000 10000000 10000000 10000000 10000000 10000000 10000000 10000000 10000000 10000000 10000000 
0 0 10000000 430 274 899 10000000 465 10000000 922 10000000 893 382 10000000 10000000 778 787 10000000 10000000 10000000 10000000 10000000 10000000 10000000 10000000 688 405 10000000 10000000 10000000 
0 10000000 0 10000000 858 10000000 10000000 10000000 800 870 10000000 10000000 935 10000000 10000000 10000000 10000000 964 10000000 10000000 10000000 10000000 10000000 10000000 730 786 10000000 10000000 10000000 10000000 
0 430 10000000 0 696 630 10000000 782 10000000 10000000 10000000 10000000 759 1049 894 965 473 10000000 1036 10000000 10000000 10000000 10000000 10000000 10000000 10000000 536 10000000 10000000 10000000 
0 274 858 696 0 10000000 10000000 390 10000000 728 10000000 752 242 10000000 10000000 770 1038 10000000 10000000 10000000 10000000 10000000 10000000 10000000 10000000 469 534 966 10000000 10000000 
0 899 10000000 630 10000000 0 661 10000000 10000000 10000000 10000000 10000000 10000000 788 666 10000000 170 968 719 10000000 928 10000000 10000000 10000000 10000000 10000000 787 10000000 818 858 
0 10000000 10000000 10000000 10000000 661 0 10000000 837 10000000 460 10000000 10000000 566 10000000 10000000 761 422 338 801 10000000 623 922 923 784 10000000 10000000 10000000 754 10000000 
0 465 10000000 782 390 10000000 10000000 0 10000000 523 10000000 434 155 10000000 902 383 1007 10000000 10000000 10000000 10000000 10000000 10000000 10000000 10000000 356 337 641 10000000 10000000 
0 10000000 800 10000000 10000000 10000000 837 10000000 0 759 488 992 10000000 10000000 10000000 10000000 10000000 720 973 10000000 10000000 794 860 428 128 942 10000000 1022 10000000 10000000 
0 922 870 10000000 728 10000000 10000000 523 759 0 978 252 551 10000000 10000000 627 10000000 10000000 10000000 10000000 10000000 10000000 10000000 1005 807 270 839 358 10000000 10000000 
0 10000000 10000000 10000000 10000000 10000000 460 10000000 488 969 0 10000000 10000000 956 10000000 10000000 10000000 593 725 683 10000000 370 573 464 494 10000000 10000000 10000000 784 10000000 
0 893 10000000 10000000 752 10000000 10000000 434 1017 252 10000000 0 526 10000000 10000000 409 10000000 10000000 10000000 10000000 10000000 10000000 10000000 10000000 10000000 364 712 214 10000000 10000000 
0 382 935 759 242 10000000 10000000 155 10000000 551 10000000 526 0 10000000 10000000 538 1007 10000000 10000000 10000000 10000000 10000000 10000000 10000000 10000000 322 411 740 10000000 10000000 
0 10000000 10000000 1091 10000000 788 566 10000000 10000000 10000000 956 10000000 10000000 0 10000000 10000000 798 457 234 10000000 10000000 10000000 10000000 10000000 10000000 10000000 10000000 10000000 10000000 10000000 
0 10000000 10000000 894 10000000 666 10000000 902 10000000 10000000 10000000 10000000 10000000 10000000 0 683 712 10000000 10000000 870 268 10000000 10000000 10000000 10000000 10000000 665 10000000 723 300 
0 778 10000000 965 770 10000000 10000000 383 10000000 627 10000000 409 538 10000000 683 0 10000000 10000000 10000000 10000000 698 10000000 10000000 10000000 10000000 618 439 516 10000000 825 
0 787 10000000 473 1040 170 761 1004 10000000 10000000 10000000 10000000 1004 798 712 10000000 0 10000000 764 10000000 980 10000000 10000000 10000000 10000000 10000000 721 10000000 970 946 
0 10000000 977 10000000 10000000 968 422 10000000 720 10000000 593 10000000 10000000 457 10000000 10000000 10000000 0 304 10000000 10000000 912 10000000 977 614 10000000 10000000 10000000 10000000 10000000 
0 10000000 10000000 1085 10000000 719 338 10000000 973 10000000 725 10000000 10000000 234 10000000 10000000 764 304 0 10000000 10000000 955 10000000 10000000 882 10000000 10000000 10000000 10000000 10000000 
0 10000000 10000000 10000000 10000000 10000000 801 10000000 10000000 10000000 683 10000000 10000000 10000000 870 10000000 10000000 10000000 10000000 0 889 333 447 847 10000000 10000000 10000000 10000000 244 734 
0 10000000 10000000 10000000 10000000 928 10000000 10000000 10000000 10000000 10000000 10000000 10000000 10000000 268 698 980 10000000 10000000 889 0 10000000 10000000 10000000 10000000 10000000 814 10000000 785 224 
0 10000000 10000000 10000000 10000000 10000000 623 10000000 794 10000000 370 10000000 10000000 10000000 10000000 10000000 10000000 912 955 333 10000000 0 309 564 835 10000000 10000000 10000000 492 997 
0 10000000 10000000 10000000 10000000 10000000 922 10000000 860 10000000 573 10000000 10000000 10000000 10000000 10000000 10000000 10000000 10000000 447 10000000 309 0 491 937 10000000 10000000 10000000 680 10000000 
0 10000000 10000000 10000000 10000000 10000000 923 10000000 428 967 464 10000000 10000000 10000000 10000000 10000000 10000000 977 10000000 847 10000000 564 491 0 533 10000000 10000000 996 10000000 10000000 
0 10000000 730 10000000 10000000 10000000 784 10000000 128 807 494 10000000 10000000 10000000 10000000 10000000 10000000 614 882 10000000 10000000 835 937 533 0 940 10000000 10000000 10000000 10000000 
0 688 786 10000000 469 10000000 10000000 356 962 270 10000000 364 322 10000000 10000000 618 10000000 10000000 10000000 10000000 10000000 10000000 10000000 10000000 956 0 690 554 10000000 10000000 
0 405 10000000 536 534 787 10000000 337 10000000 839 10000000 712 411 10000000 665 439 721 10000000 10000000 10000000 814 10000000 10000000 10000000 10000000 690 0 889 10000000 928 
0 10000000 10000000 10000000 966 10000000 10000000 641 1035 358 10000000 214 740 10000000 10000000 516 10000000 10000000 10000000 10000000 10000000 10000000 10000000 1023 10000000 554 889 0 10000000 10000000 
0 10000000 10000000 10000000 10000000 818 754 10000000 10000000 10000000 784 10000000 10000000 10000000 723 10000000 970 10000000 10000000 244 785 492 680 10000000 10000000 10000000 10000000 10000000 0 600 
0 10000000 10000000 10000000 10000000 10000000 10000000 10000000 10000000 10000000 10000000 10000000 10000000 10000000 10000000 10000000 10000000 10000000 10000000 10000000 10000000 10000000 10000000 10000000 10000000 10000000 10000000 10000000 10000000 0 
EOF